100
32
2
25
23
13
4
10
32
29
28
32
28
32
5
8
31
28
16
5
15
16
24
15
31
32
31
30
31
2
23
5
23
12
21
24
19
23
27
5
29
6
13
10
18
20
27
17
31
32
13
25
11
3
23
32
27
17
18
26
22
9
25
32
7
8
17
22
6
1
3
31
25
8
2
14
21
1
5
2
21
17
2
15
7
3
5
4
17
7
9
22
20
4
28
25
5
3
26
27
19
6